c FILE: i160-002

c SOURCE: From steinlib

c DESCRIPTION: Steinlib instance with 160 nodes and 240 edges.

p edge 160 240
e 1 10
e 1 31
e 1 44
e 1 68
e 1 76
e 1 93
e 1 126
e 1 127
e 1 155
e 2 7
e 2 64
e 3 62
e 3 126
e 4 72
e 4 93
e 4 146
e 5 16
e 5 86
e 5 159
e 6 57
e 6 95
e 6 97
e 7 14
e 8 112
e 9 57
e 9 104
e 9 156
e 10 23
e 10 113
e 11 73
e 11 105
e 12 44
e 12 69
e 12 115
e 12 121
e 13 51
e 13 54
e 13 95
e 13 135
e 13 143
e 14 20
e 14 83
e 14 88
e 14 96
e 14 148
e 15 40
e 15 76
e 15 107
e 15 129
e 15 160
e 16 32
e 16 143
e 17 88
e 17 91
e 18 58
e 19 39
e 19 122
e 20 47
e 21 60
e 21 64
e 21 93
e 21 140
e 22 94
e 22 114
e 22 118
e 23 54
e 24 122
e 24 135
e 24 139
e 25 102
e 25 142
e 26 97
e 27 51
e 27 62
e 27 130
e 28 43
e 28 131
e 28 151
e 29 53
e 29 64
e 29 146
e 30 105
e 30 151
e 30 156
e 31 83
e 31 123
e 31 144
e 33 42
e 33 114
e 33 116
e 34 55
e 34 57
e 34 77
e 34 106
e 34 137
e 35 91
e 35 130
e 36 87
e 36 119
e 37 87
e 37 104
e 38 79
e 39 73
e 39 112
e 39 115
e 39 124
e 40 102
e 40 109
e 41 98
e 41 136
e 43 129
e 43 144
e 44 84
e 45 55
e 46 62
e 46 83
e 46 92
e 47 95
e 47 131
e 47 159
e 48 136
e 48 140
e 49 76
e 50 109
e 51 70
e 51 94
e 51 96
e 51 145
e 51 150
e 51 152
e 52 110
e 52 113
e 53 67
e 53 78
e 53 89
e 53 159
e 55 105
e 55 160
e 56 112
e 56 151
e 57 59
e 58 148
e 58 159
e 60 79
e 61 67
e 61 70
e 63 88
e 63 117
e 63 139
e 65 91
e 65 95
e 66 108
e 66 115
e 67 83
e 67 150
e 68 131
e 69 140
e 70 132
e 70 142
e 71 86
e 71 143
e 72 114
e 73 142
e 74 108
e 74 115
e 74 124
e 74 155
e 75 93
e 75 130
e 75 143
e 76 99
e 76 108
e 76 112
e 76 122
e 77 88
e 78 102
e 78 103
e 78 107
e 79 147
e 79 148
e 80 107
e 80 110
e 81 104
e 81 115
e 81 121
e 81 131
e 81 147
e 82 85
e 82 129
e 84 95
e 84 111
e 84 152
e 86 124
e 86 154
e 87 93
e 87 130
e 88 104
e 88 129
e 89 90
e 89 123
e 89 151
e 90 133
e 92 128
e 92 160
e 94 113
e 94 148
e 95 104
e 95 119
e 96 107
e 98 113
e 99 130
e 100 122
e 101 129
e 104 126
e 104 159
e 105 112
e 105 130
e 106 133
e 110 139
e 110 141
e 110 157
e 113 127
e 117 134
e 117 155
e 118 125
e 118 155
e 120 123
e 120 129
e 126 133
e 126 140
e 127 138
e 129 151
e 130 132
e 140 156
e 140 158
e 142 153
e 143 145
e 149 155
e 150 154
e 152 153
